c turning on binary mode checking
c parsing input formula with 259840 variables and 1039919 clauses
c finished parsing, read 23579396 bytes from proof file
c detected empty clause; start verification via backward checking
c 7436 of 1039919 clauses in core                            
c 9312 of 605412 lemmas in core using 58613 resolution steps
c 0 RAT lemmas in core; 559 redundant literals in core lemmas
s VERIFIED
c verification time: 2.584 seconds
